param n := 4;
param m := 5;

param c :=
1 60
2 350
3 25
4 50
;

param a :=
1 1 800
1 2 280
1 3 245
1 4 80
2 1 0.6
2 2 15
2 3 8
2 4 0
3 1 20
3 2 5
3 3 0
3 4 0
4 1 0
4 2 0
4 3 5
4 4 10
5 1 0.15
5 2 0.08
5 3 0
5 4 0
;

param b_min :=
1 2400
2 60
3 0
4 10
5 0
;

param b_max :=
1 2800
2 60
3 30
4 40
5 0.5
;